
Log started (V11.0.0) Wed Apr 16 16:02:24 2008

Tried aggregator 1 time.
Reduced MIP has 210 rows, 2001 columns, and 4010 nonzeros.
Presolve time =    0.02 sec.
Clique table members: 200.
MIP emphasis: balance optimality and feasibility.
MIP search method: dynamic search.
Parallel mode: none, using 1 thread.
Root relaxation solution time =    0.05 sec.

        Nodes                                         Cuts/
   Node  Left     Objective  IInf  Best Integer     Best Node    ItCnt     Gap

*     0+    0                        10397.0000      365.4092      299   96.49%
*     0+    0                          372.0000      365.4092      299    1.77%
      0     0      366.0000    22      372.0000     Fract: 10      318    1.61%
      0     0      366.0000    19      372.0000     Covers: 1      326    1.61%
      0     0      366.0000    19      372.0000     Covers: 1      343    1.61%
      0     0      366.0000    19      372.0000     Covers: 1      351    1.61%
*     0+    0                          371.0000      366.0000      351    1.35%

Repeating presolve.
Tried aggregator 1 time.
MIP Presolve eliminated 0 rows and 771 columns.
Aggregator did 3 substitutions.
Reduced MIP has 207 rows, 1227 columns, and 2462 nonzeros.
Tried aggregator 1 time.
Represolve time =    0.05 sec.
Clique table members: 197.
MIP emphasis: balance optimality and feasibility.
MIP search method: dynamic search.
Parallel mode: none, using 1 thread.
Root relaxation solution time =    0.01 sec.

        Nodes                                         Cuts/
   Node  Left     Objective  IInf  Best Integer     Best Node    ItCnt     Gap

      0     0      366.0000    22      371.0000      366.0000      231    1.35%
      0     2      366.0000    22      371.0000      366.0000      231    1.35%
    100    64      366.0000    19      371.0000      366.0000     2481    1.35%
    200   140      369.0000    13      371.0000      366.0000     5243    1.35%
    300   211      370.0000    25      371.0000      366.0000     8111    1.35%
    400   271    infeasible            371.0000      366.0000    10968    1.35%
    500   348      368.0000    17      371.0000      367.0000    15511    1.08%
    600   341      368.2927    23      371.0000      367.0000    20998    1.08%
    700   344      369.0000    26      371.0000      367.0000    23972    1.08%
    800   357      368.0000    39      371.0000      367.0000    26482    1.08%
    900   337    infeasible            371.0000      367.0000    29257    1.08%
   1000   369      369.0006    48      371.0000      367.0000    34034    1.08%
Elapsed time =   7.83 sec. (tree size =  0.22 MB, solutions = 3)
   1100   456      370.0000    26      371.0000      367.0000    37235    1.08%
   1200   543      369.0000    52      371.0000      367.0000    41577    1.08%
   1300   613      369.0000    20      371.0000      367.0000    46988    1.08%
   1400   683      369.0000    48      371.0000      367.0000    51434    1.08%
   1500   775      369.0000    38      371.0000      367.0000    55127    1.08%
*  1564+  572                          370.0000      367.0000    58061    0.81%
   1600   609      369.0000    24      370.0000      367.0000    59174    0.81%
   1700   692      369.0000    24      370.0000      367.0000    63885    0.81%
   1800   773      369.0000    46      370.0000      367.0000    68373    0.81%
   1900   859      369.0000    32      370.0000      367.0000    73947    0.81%
   2000   944      369.0000    28      370.0000      367.0000    78677    0.81%
Elapsed time =  14.59 sec. (tree size =  0.60 MB, solutions = 4)
   2100  1027      368.0000    54      370.0000      367.0000    83085    0.81%
   2200  1120      368.0000    24      370.0000      367.0000    86937    0.81%
   2300  1195      368.0305    55      370.0000      367.0000    91981    0.81%
   2400  1271      369.0000    28      370.0000      367.0000    97713    0.81%
   2500  1353      369.0000    38      370.0000      367.0000   103745    0.81%
   2600  1438      367.0000    30      370.0000      367.0000   107563    0.81%
   2700  1521      368.0000    36      370.0000      367.0000   113229    0.81%
   2800  1607      368.0000    31      370.0000      367.0000   117516    0.81%
   2900  1692      369.0000    30      370.0000      367.0000   122120    0.81%
   3000  1771      367.0000    37      370.0000      367.0000   128633    0.81%
Elapsed time =  22.14 sec. (tree size =  1.13 MB, solutions = 4)
   3100  1856    infeasible            370.0000      367.0000   134901    0.81%
   3200  1944      369.0000    40      370.0000      367.0000   140902    0.81%
   3300  2025      368.0000    35      370.0000      367.0000   148596    0.81%
*  3384+  949                          369.0000      367.0000   153335    0.54%
   3400   966      368.0000    32      369.0000      367.0000   153874    0.54%
   3500  1057    infeasible            369.0000      367.0000   159623    0.54%
   3600  1144      368.0000    37      369.0000      367.0000   165882    0.54%
   3700  1217      368.0000    51      369.0000      367.0000   175306    0.54%
   3800  1298      368.0000    31      369.0000      367.0000   183897    0.54%
   3900  1383      368.0000    46      369.0000      367.0000   190502    0.54%
   4000  1466      368.0000    42      369.0000      367.0000   197930    0.54%
Elapsed time =  33.78 sec. (tree size =  0.96 MB, solutions = 5)
   4100  1554      368.0000    38      369.0000      367.0000   204223    0.54%
   4200  1643      368.0000    28      369.0000      367.0000   208598    0.54%
   4300  1726      368.0000    38      369.0000      367.0000   216445    0.54%
   4400  1809      368.0000    34      369.0000      367.0000   223107    0.54%
   4500  1881      367.0000    67      369.0000      367.0000   232226    0.54%
   4600  1958      368.0000    75      369.0000      367.0000   242335    0.54%
   4700  2033      368.0000    45      369.0000      367.0000   252812    0.54%
   4800  2122      368.0000    29      369.0000      367.0000   257759    0.54%
   4900  2203      368.0000    44      369.0000      367.0000   264251    0.54%
   5000  2291      368.0000    36      369.0000      367.0000   273776    0.54%
Elapsed time =  49.64 sec. (tree size =  1.52 MB, solutions = 5)
   5100  2375      367.0000    52      369.0000      367.0000   282599    0.54%
   5200  2456      368.0000    75      369.0000      367.0000   293072    0.54%
   5300  2528      368.0000    31      369.0000      367.0000   305362    0.54%
   5400  2603      368.0000    48      369.0000      367.0000   315808    0.54%
   5500  2675      368.0000    55      369.0000      367.0000   327228    0.54%
   5600  2744      368.0000    77      369.0000      367.0000   340179    0.54%
   5700  2814      368.0000    34      369.0000      367.0000   353406    0.54%
   5800  2889    infeasible            369.0000      367.0000   366419    0.54%
   5900  2956      368.0000    82      369.0000      367.0000   380855    0.54%
   6000  3039      368.0000    47      369.0000      367.0000   391483    0.54%
Elapsed time =  75.53 sec. (tree size =  2.05 MB, solutions = 5)
   6100  3122      368.0000    39      369.0000      367.0000   403417    0.54%
   6200  3207      368.0000    36      369.0000      367.0000   414718    0.54%
   6300  3279      368.0000    41      369.0000      367.0000   426643    0.54%
   6400  3360      368.0000    48      369.0000      367.0000   437786    0.54%
   6500  3428      368.0000    44      369.0000      367.0000   451343    0.54%
   6600  3493      367.0000    48      369.0000      367.0000   468211    0.54%
   6700  3574      368.0000    42      369.0000      367.0000   479843    0.54%
   6800  3648    infeasible            369.0000      367.0000   493305    0.54%
   6900  3711      368.0000    50      369.0000      367.0000   508995    0.54%
   7000  3789      368.0000    58      369.0000      367.0000   520232    0.54%
Elapsed time = 107.33 sec. (tree size =  2.59 MB, solutions = 5)
   7100  3862    infeasible            369.0000      367.0000   534487    0.54%
   7200  3944    infeasible            369.0000      367.0000   548302    0.54%
   7300  4012      367.0528    62      369.0000      367.0000   563929    0.54%
   7400  4087      368.0000    82      369.0000      367.0000   574440    0.54%
   7500  4163      368.0000    46      369.0000      367.0000   587822    0.54%
   7600  4246      368.0000    51      369.0000      367.0000   600635    0.54%
   7700  4316      368.0000    36      369.0000      367.0000   614465    0.54%
   7800  4388      368.0000    63      369.0000      367.0000   625804    0.54%
   7900  4472      368.0000    30      369.0000      367.0000   633411    0.54%
   8000  4556      368.0000    56      369.0000      367.0000   639955    0.54%
Elapsed time = 138.45 sec. (tree size =  3.21 MB, solutions = 5)
   8100  4625      368.0000    47      369.0000      367.0000   649220    0.54%
   8200  4700      368.0000    40      369.0000      367.0000   661499    0.54%
   8300  4781      368.0000    67      369.0000      367.0000   669269    0.54%
   8400  4850      368.0000    38      369.0000      367.0000   684042    0.54%
   8500  4922      368.0000    48      369.0000      367.0000   694438    0.54%
   8600  4996      368.0000    50      369.0000      367.0000   708442    0.54%
   8700  5076      368.0000    40      369.0000      367.0000   722917    0.54%
   8800  5159      368.0000    50      369.0000      367.0000   735555    0.54%
   8900  5239      368.0000    55      369.0000      367.0000   746699    0.54%
   9000  5319      367.0000    48      369.0000      367.0000   760135    0.54%
Elapsed time = 176.98 sec. (tree size =  3.78 MB, solutions = 5)
   9100  5403      368.0000    72      369.0000      367.0000   772816    0.54%
   9200  5477      368.0000    36      369.0000      367.0000   786911    0.54%
   9300  5555      368.0000    32      369.0000      367.0000   801076    0.54%
   9400  5633    infeasible            369.0000      367.0000   815427    0.54%
   9500  5712      368.0000    33      369.0000      367.0000   829027    0.54%
   9600  5789      368.0000    64      369.0000      367.0000   839699    0.54%
   9700  5877      368.0000    45      369.0000      367.0000   852400    0.54%
   9800  5951      368.0000    56      369.0000      367.0000   864763    0.54%
   9900  6031      368.0000    71      369.0000      367.0000   875362    0.54%
  10000  6112    infeasible            369.0000      367.0000   884749    0.54%
Elapsed time = 211.58 sec. (tree size =  4.37 MB, solutions = 5)
  10100  6182      368.0000    55      369.0000      367.0000   895048    0.54%
  10200  6259    infeasible            369.0000      367.0000   905535    0.54%
  10300  6347    infeasible            369.0000      367.0000   915943    0.54%
  10400  6437      368.0000    34      369.0000      367.0000   924351    0.54%
  10500  6525      368.0000    26      369.0000      367.0000   928930    0.54%
  10600  6607      368.0000    39      369.0000      367.0000   936974    0.54%
  10700  6695      368.0000    50      369.0000      367.0000   942088    0.54%
  10800  6777      368.0000    62      369.0000      367.0000   951227    0.54%
  10900  6857      368.0000    52      369.0000      367.0000   964822    0.54%
  11000  6932      367.0000    86      369.0000      367.0000   978211    0.54%
Elapsed time = 237.67 sec. (tree size =  4.97 MB, solutions = 5)
  11100  7019      368.0000    61      369.0000      367.0000   988214    0.54%
  11200  7098    infeasible            369.0000      367.0000   999399    0.54%
  11300  7171      368.0000    43      369.0000      367.0000  1012540    0.54%
  11400  7253    infeasible            369.0000      367.0000  1023928    0.54%
  11500  7332      368.0000    39      369.0000      367.0000  1034771    0.54%
  11600  7422      368.0000    22      369.0000      367.0000  1042522    0.54%
  11700  7503      368.0000    33      369.0000      367.0000  1050992    0.54%
  11800  7577      368.0000    33      369.0000      367.0000  1062232    0.54%
  11900  7657      368.0000    39      369.0000      367.0000  1071237    0.54%
  12000  7743      368.0000    34      369.0000      367.0000  1079955    0.54%
Elapsed time = 265.33 sec. (tree size =  5.57 MB, solutions = 5)
  12100  7829    infeasible            369.0000      367.0000  1088853    0.54%
  12200  7907      368.0000    44      369.0000      367.0000  1099199    0.54%
  12300  7997      368.0000    33      369.0000      367.0000  1104011    0.54%
  12400  8078      368.0000    37      369.0000      367.0000  1110912    0.54%
  12500  8152      368.0000    28      369.0000      367.0000  1117879    0.54%
  12600  8237      368.0000    63      369.0000      367.0000  1126420    0.54%
  12700  8319      368.0000    26      369.0000      367.0000  1130641    0.54%
  12800  8404      367.5323    43      369.0000      367.0000  1134660    0.54%
  12900  8487      368.0000    43      369.0000      367.0000  1138593    0.54%
  13000  8572      368.0000    39      369.0000      367.0000  1146651    0.54%
Elapsed time = 283.88 sec. (tree size =  6.31 MB, solutions = 5)
  13100  8649      368.0000    26      369.0000      367.0000  1152982    0.54%
  13200  8732      368.0000    30      369.0000      367.0000  1157685    0.54%
  13300  8815      368.0000    26      369.0000      367.0000  1163711    0.54%
  13400  8895      368.0000    29      369.0000      367.0000  1171719    0.54%
  13500  8985      368.0000    31      369.0000      367.0000  1178597    0.54%
  13600  9066      368.0000    20      369.0000      367.0000  1185654    0.54%
  13700  9147    infeasible            369.0000      367.0000  1196458    0.54%
  13800  9226      368.0000    14      369.0000      367.0000  1202415    0.54%
  13900  9307      367.0371    53      369.0000      367.0000  1206258    0.54%
  14000  9387      368.0000    36      369.0000      367.0000  1211638    0.54%
Elapsed time = 300.91 sec. (tree size =  6.92 MB, solutions = 5)
  14100  9465      368.0000    30      369.0000      367.0000  1219801    0.54%
  14200  9541    infeasible            369.0000      367.0000  1225284    0.54%
  14300  9624      368.0000    30      369.0000      367.0000  1231152    0.54%
  14400  9703      368.0000    31      369.0000      367.0000  1237417    0.54%
  14500  9791      368.0000    39      369.0000      367.0000  1245640    0.54%
  14600  9871      367.0000    36      369.0000      367.0000  1252037    0.54%
  14700  9960      368.0000    29      369.0000      367.0000  1257707    0.54%
  14800 10048      368.0000    40      369.0000      367.0000  1263587    0.54%
  14900 10132      367.0000    30      369.0000      367.0000  1269840    0.54%
  15000 10226      368.0000    41      369.0000      367.0000  1275996    0.54%
Elapsed time = 318.72 sec. (tree size =  7.53 MB, solutions = 5)
  15100 10306      368.0000    28      369.0000      367.0000  1283256    0.54%
  15200 10392      368.0000    16      369.0000      367.0000  1287646    0.54%
  15300 10478      368.0000    26      369.0000      367.0000  1293020    0.54%
  15400 10566      368.0000    34      369.0000      367.0000  1295757    0.54%
  15500 10641      367.1413    61      369.0000      367.0000  1303266    0.54%
  15600 10729      368.0000    34      369.0000      367.0000  1308403    0.54%
  15700 10814      368.0000    28      369.0000      367.0000  1312331    0.54%
  15800 10893      368.0000    32      369.0000      367.0000  1320676    0.54%
  15900 10983      368.0000    40      369.0000      367.0000  1327594    0.54%
  16000 11067    infeasible            369.0000      367.0000  1336422    0.54%
Elapsed time = 333.94 sec. (tree size =  8.16 MB, solutions = 5)
  16100 11149      367.0000    54      369.0000      367.0000  1343941    0.54%
  16200 11230      368.0000    50      369.0000      367.0000  1351778    0.54%
  16300 11318      368.0000    43      369.0000      367.0000  1359142    0.54%
  16400 11398      368.0000    33      369.0000      367.0000  1365835    0.54%
  16500 11486      368.0000    26      369.0000      367.0000  1371055    0.54%
  16600 11561      367.0000    34      369.0000      367.0000  1377692    0.54%
  16700 11647      368.0000    48      369.0000      367.0000  1384599    0.54%
  16800 11735      368.0000    32      369.0000      367.0000  1389468    0.54%
  16900 11817      368.0000    30      369.0000      367.0000  1395985    0.54%
  17000 11902      368.0000    37      369.0000      367.0000  1403198    0.54%
Elapsed time = 352.39 sec. (tree size =  8.77 MB, solutions = 5)
  17100 11990      368.0000    50      369.0000      367.0000  1410682    0.54%
  17200 12077      368.0000    29      369.0000      367.0000  1415021    0.54%
  17300 12152        cutoff            369.0000      367.0000  1422836    0.54%
  17400 12237      368.0000    28      369.0000      367.0000  1429328    0.54%
  17500 12327      368.0000    40      369.0000      367.0000  1434913    0.54%
  17600 12415      368.0000    33      369.0000      367.0000  1442463    0.54%
  17700 12500      368.0000    59      369.0000      367.0000  1450066    0.54%
  17800 12578      368.0000    20      369.0000      367.0000  1458775    0.54%
  17900 12663      368.0000    30      369.0000      367.0000  1464987    0.54%
  18000 12750      368.0000    43      369.0000      367.0000  1472877    0.54%
Elapsed time = 371.42 sec. (tree size =  9.40 MB, solutions = 5)
  18100 12840      368.0000    41      369.0000      367.0000  1479362    0.54%
  18200 12924      368.0000    42      369.0000      367.0000  1484294    0.54%
  18300 13012      368.0000    32      369.0000      367.0000  1490151    0.54%
  18400 13095      368.0000    34      369.0000      367.0000  1495636    0.54%
  18500 13181      368.0000    38      369.0000      367.0000  1503447    0.54%
  18600 13257      368.0000    26      369.0000      367.0000  1511620    0.54%
  18700 13345      368.0000    55      369.0000      367.0000  1519832    0.54%
  18800 13428      368.0000    28      369.0000      367.0000  1528649    0.54%
  18900 13510      368.0000    38      369.0000      367.0000  1533015    0.54%
  19000 13589      368.0000    34      369.0000      367.0000  1539499    0.54%
Elapsed time = 388.66 sec. (tree size = 10.02 MB, solutions = 5)
  19100 13671      368.0000    31      369.0000      367.0000  1544656    0.54%
  19200 13757      368.0000    46      369.0000      367.0000  1550601    0.54%
  19300 13837      368.0000    41      369.0000      367.0000  1556951    0.54%
  19400 13918      367.0000    39      369.0000      367.0000  1564581    0.54%
  19500 14007      368.0000    24      369.0000      367.0000  1569969    0.54%
  19600 14088      368.0000    41      369.0000      367.0000  1576881    0.54%
  19700 14165      367.0000    65      369.0000      367.0000  1583627    0.54%
  19800 14247      368.0000    30      369.0000      367.0000  1590618    0.54%
  19900 14332      368.0000    30      369.0000      367.0000  1595055    0.54%
  20000 14413      368.0000    51      369.0000      367.0000  1599962    0.54%
Elapsed time = 406.02 sec. (tree size = 10.63 MB, solutions = 5)
  20100 14491      368.0000    75      369.0000      367.0000  1607020    0.54%
  20200 14574      368.0000    50      369.0000      367.0000  1612421    0.54%
  20300 14645      368.0000    29      369.0000      367.0000  1620112    0.54%
  20400 14717      368.0000    42      369.0000      367.0000  1626165    0.54%
  20500 14796      368.0000    14      369.0000      367.0000  1632473    0.54%
  20600 14881      368.0000    27      369.0000      367.0000  1637175    0.54%
  20700 14967      368.0000    14      369.0000      367.0000  1640251    0.54%
  20800 15057      367.1184    37      369.0000      367.0000  1642322    0.54%
  20900 15150      368.0000    33      369.0000      367.0000  1647369    0.54%
  21000 15233      368.0000    40      369.0000      367.0000  1652554    0.54%
Elapsed time = 421.41 sec. (tree size = 11.25 MB, solutions = 5)
  21100 15314      367.0000    61      369.0000      367.0000  1661241    0.54%
  21200 15393      368.0000    47      369.0000      367.0000  1670115    0.54%
  21300 15482      368.0000    32      369.0000      367.0000  1676749    0.54%
  21400 15563      368.0000    26      369.0000      367.0000  1682845    0.54%
  21500 15648      368.0000    30      369.0000      367.0000  1688839    0.54%
  21600 15729      368.0000    43      369.0000      367.0000  1696405    0.54%
  21700 15810      368.0000    33      369.0000      367.0000  1702770    0.54%
  21800 15894      368.0000    14      369.0000      367.0000  1709274    0.54%
  21900 15984      368.0000    52      369.0000      367.0000  1714566    0.54%
  22000 16056      368.0000    50      369.0000      367.0000  1726157    0.54%
Elapsed time = 439.44 sec. (tree size = 11.86 MB, solutions = 5)
  22100 16131      368.0000    48      369.0000      367.0000  1736206    0.54%
  22200 16209    infeasible            369.0000      367.0000  1747968    0.54%
  22300 16298      368.0000    32      369.0000      367.0000  1752687    0.54%
  22400 16384      368.0000    50      369.0000      367.0000  1760580    0.54%
  22500 16463      368.0000    33      369.0000      367.0000  1767441    0.54%
  22600 16553      368.0000    36      369.0000      367.0000  1774729    0.54%
  22700 16637      368.0000    58      369.0000      367.0000  1782612    0.54%
  22800 16714      368.0000    26      369.0000      367.0000  1793957    0.54%
  22900 16800      368.0000    33      369.0000      367.0000  1803480    0.54%
  23000 16884      368.0000    28      369.0000      367.0000  1810655    0.54%
Elapsed time = 463.05 sec. (tree size = 12.73 MB, solutions = 5)
  23100 16967      368.0000    38      369.0000      367.0000  1819117    0.54%
* 23184+  646                          368.0000      367.0000  1825467    0.27%
  23200   645    infeasible            368.0000      367.0000  1829356    0.27%
  23300   659    infeasible            368.0000      367.0000  1850727    0.27%
  23400   657    infeasible            368.0000      367.0000  1874262    0.27%
  23500   657    infeasible            368.0000      367.0000  1897636    0.27%
  23600   635      367.0000    36      368.0000      367.0000  1922558    0.27%
  23700   637      367.0000    54      368.0000      367.0000  1946820    0.27%
  23800   649      367.0000    62      368.0000      367.0000  1970197    0.27%
  23900   641      367.0000    39      368.0000      367.0000  1997184    0.27%
  24000   657      367.0000    57      368.0000      367.0000  2020701    0.27%
Elapsed time = 514.91 sec. (tree size =  0.90 MB, solutions = 6)
  24100   701      367.0000    56      368.0000      367.0000  2038858    0.27%
  24200   689    infeasible            368.0000      367.0000  2061919    0.27%
  24300   647      367.0000    65      368.0000      367.0000  2089343    0.27%
  24400   665      367.0000    69      368.0000      367.0000  2112343    0.27%
  24500   643      367.0000    69      368.0000      367.0000  2139354    0.27%
  24600   667      367.0000    47      368.0000      367.0000  2160851    0.27%
  24700   645      367.0000    40      368.0000      367.0000  2184112    0.27%
  24800   649      367.0000    73      368.0000      367.0000  2207355    0.27%
  24900   641      367.0000    62      368.0000      367.0000  2232023    0.27%
  25000   685    infeasible            368.0000      367.0000  2248467    0.27%
Elapsed time = 572.64 sec. (tree size =  0.92 MB, solutions = 6)
  25100   683    infeasible            368.0000      367.0000  2272557    0.27%
  25200   681    infeasible            368.0000      367.0000  2296250    0.27%
  25300   661      367.0000    48      368.0000      367.0000  2319718    0.27%
  25400   637    infeasible            368.0000      367.0000  2346715    0.27%
  25500   627    infeasible            368.0000      367.0000  2371700    0.27%
  25600   633    infeasible            368.0000      367.0000  2397413    0.27%
  25700   595    infeasible            368.0000      367.0000  2424978    0.27%
  25800   579    infeasible            368.0000      367.0000  2446828    0.27%
  25900   581      367.0000    43      368.0000      367.0000  2469425    0.27%
  26000   567      367.0000    59      368.0000      367.0000  2495473    0.27%
Elapsed time = 634.55 sec. (tree size =  0.85 MB, solutions = 6)
  26100   575    infeasible            368.0000      367.0000  2516068    0.27%
  26200   569    infeasible            368.0000      367.0000  2538745    0.27%
  26300   543      367.0000    48      368.0000      367.0000  2566185    0.27%
  26400   557      367.0000    45      368.0000      367.0000  2590112    0.27%
  26500   579    infeasible            368.0000      367.0000  2610844    0.27%
  26600   594      367.0000    38      368.0000      367.0000  2631521    0.27%
  26700   590      367.0000    55      368.0000      367.0000  2650289    0.27%
  26800   566    infeasible            368.0000      367.0000  2673765    0.27%
  26900   562      367.0000    48      368.0000      367.0000  2699641    0.27%
  27000   550      367.0000    53      368.0000      367.0000  2725157    0.27%
Elapsed time = 691.72 sec. (tree size =  0.84 MB, solutions = 6)
  27100   557    infeasible            368.0000      367.0000  2747464    0.27%
  27200   537    infeasible            368.0000      367.0000  2775663    0.27%
  27300   513      367.0000    68      368.0000      367.0000  2804531    0.27%
  27400   473      367.0000    48      368.0000      367.0000  2832702    0.27%
  27500   443      367.0000    72      368.0000      367.0000  2856525    0.27%
  27600   413    infeasible            368.0000      367.0000  2885315    0.27%
  27700   439    infeasible            368.0000      367.0000  2900653    0.27%
  27800   397      367.0000    59      368.0000      367.0000  2929614    0.27%
  27900   391      367.0000    62      368.0000      367.0000  2956315    0.27%
  28000   383    infeasible            368.0000      367.0000  2986561    0.27%
Elapsed time = 757.94 sec. (tree size =  0.75 MB, solutions = 6)
  28100   393    infeasible            368.0000      367.0000  3010074    0.27%
  28200   383      367.0000    54      368.0000      367.0000  3038653    0.27%
  28300   385    infeasible            368.0000      367.0000  3061993    0.27%
  28400   331      367.0000    61      368.0000      367.0000  3091168    0.27%
  28500   319    infeasible            368.0000      367.0000  3119451    0.27%
  28600   311    infeasible            368.0000      367.0000  3147260    0.27%
  28700   299    infeasible            368.0000      367.0000  3170859    0.27%
  28800   251    infeasible            368.0000      367.0000  3199203    0.27%
  28900   287      367.0000    61      368.0000      367.0000  3223693    0.27%
  29000   283    infeasible            368.0000      367.0000  3248726    0.27%
Elapsed time = 823.45 sec. (tree size =  0.69 MB, solutions = 6)
  29100   219    infeasible            368.0000      367.0000  3281791    0.27%
  29200   177    infeasible            368.0000      367.0000  3310501    0.27%
  29300   151      367.0000    60      368.0000      367.0000  3337515    0.27%
  29400   132    infeasible            368.0000      367.0000  3362342    0.27%
  29500   116      367.0000    65      368.0000      367.0000  3387344    0.27%
  29600    76      367.0000    77      368.0000      367.0000  3417579    0.27%
  29700    54      367.0000    58      368.0000      367.0000  3444359    0.27%
  29800    28    infeasible            368.0000      367.0000  3476104    0.27%
  29900    50      367.0000    74      368.0000      367.0000  3497846    0.27%
  30000    10    infeasible            368.0000      367.0000  3527570    0.27%
Elapsed time = 892.11 sec. (tree size =  0.53 MB, solutions = 6)

Cover cuts applied:  1003
Mixed integer rounding cuts applied:  19
Zero-half cuts applied:  3
Gomory fractional cuts applied:  10

Solution pool: 6 solutions saved.

MIP - Integer optimal solution:  Objective = 3.6800000000e+002
Solution time =  897.08 sec.  Iterations = 3545831  Nodes = 30061


Incumbent solution
Variable Name           Solution Value
Cmax                        368.000000
X_1_10                        1.000000
X_2_7                         1.000000
X_3_5                         1.000000
X_4_1                         1.000000
X_5_9                         1.000000
X_6_5                         1.000000
X_7_5                         1.000000
X_8_4                         1.000000
X_9_8                         1.000000
X_10_3                        1.000000
X_11_9                        1.000000
X_12_8                        1.000000
X_13_6                        1.000000
X_14_8                        1.000000
X_15_5                        1.000000
X_16_4                        1.000000
X_17_2                        1.000000
X_18_9                        1.000000
X_19_3                        1.000000
X_20_10                       1.000000
X_21_10                       1.000000
X_22_5                        1.000000
X_23_9                        1.000000
X_24_3                        1.000000
X_25_6                        1.000000
X_26_4                        1.000000
X_27_4                        1.000000
X_28_1                        1.000000
X_29_8                        1.000000
X_30_3                        1.000000
X_31_8                        1.000000
X_32_3                        1.000000
X_33_9                        1.000000
X_34_9                        1.000000
X_35_10                       1.000000
X_36_5                        1.000000
X_37_7                        1.000000
X_38_7                        1.000000
X_39_8                        1.000000
X_40_6                        1.000000
X_41_6                        1.000000
X_42_4                        1.000000
X_43_9                        1.000000
X_44_4                        1.000000
X_45_10                       1.000000
X_46_5                        1.000000
X_47_10                       1.000000
X_48_1                        1.000000
X_49_7                        1.000000
X_50_6                        1.000000
X_51_8                        1.000000
X_52_3                        1.000000
X_53_8                        1.000000
X_54_5                        1.000000
X_55_10                       1.000000
X_56_5                        1.000000
X_57_6                        1.000000
X_58_10                       1.000000
X_59_1                        1.000000
X_60_7                        1.000000
X_61_2                        1.000000
X_62_2                        1.000000
X_63_2                        1.000000
X_64_2                        1.000000
X_65_3                        1.000000
X_66_6                        1.000000
X_67_10                       1.000000
X_68_2                        1.000000
X_69_9                        1.000000
X_70_7                        1.000000
X_71_6                        1.000000
X_72_4                        1.000000
X_73_4                        1.000000
X_74_9                        1.000000
X_75_9                        1.000000
X_76_5                        1.000000
X_77_4                        1.000000
X_78_6                        1.000000
X_79_3                        1.000000
X_80_1                        1.000000
X_81_6                        1.000000
X_82_9                        1.000000
X_83_1                        1.000000
X_84_2                        1.000000
X_85_1                        1.000000
X_86_8                        1.000000
X_87_10                       1.000000
X_88_3                        1.000000
X_89_1                        1.000000
X_90_1                        1.000000
X_91_1                        1.000000
X_92_7                        1.000000
X_93_4                        1.000000
X_94_8                        1.000000
X_95_2                        1.000000
X_96_3                        1.000000
X_97_8                        1.000000
X_98_4                        1.000000
X_99_1                        1.000000
X_100_4                       1.000000
X_101_9                       1.000000
X_102_8                       1.000000
X_103_9                       1.000000
X_104_6                       1.000000
X_105_5                       1.000000
X_106_1                       1.000000
X_107_3                       1.000000
X_108_1                       1.000000
X_109_7                       1.000000
X_110_9                       1.000000
X_111_4                       1.000000
X_112_2                       1.000000
X_113_2                       1.000000
X_114_3                       1.000000
X_115_8                       1.000000
X_116_2                       1.000000
X_117_7                       1.000000
X_118_9                       1.000000
X_119_5                       1.000000
X_120_8                       1.000000
X_121_9                       1.000000
X_122_7                       1.000000
X_123_10                      1.000000
X_124_10                      1.000000
X_125_3                       1.000000
X_126_2                       1.000000
X_127_1                       1.000000
X_128_1                       1.000000
X_129_5                       1.000000
X_130_8                       1.000000
X_131_5                       1.000000
X_132_5                       1.000000
X_133_2                       1.000000
X_134_1                       1.000000
X_135_7                       1.000000
X_136_6                       1.000000
X_137_2                       1.000000
X_138_10                      1.000000
X_139_3                       1.000000
X_140_6                       1.000000
X_141_4                       1.000000
X_142_5                       1.000000
X_143_3                       1.000000
X_144_9                       1.000000
X_145_3                       1.000000
X_146_7                       1.000000
X_147_5                       1.000000
X_148_2                       1.000000
X_149_5                       1.000000
X_150_3                       1.000000
X_151_2                       1.000000
X_152_8                       1.000000
X_153_10                      1.000000
X_154_8                       1.000000
X_155_4                       1.000000
X_156_2                       1.000000
X_157_6                       1.000000
X_158_7                       1.000000
X_159_1                       1.000000
X_160_10                      1.000000
X_161_9                       1.000000
X_162_8                       1.000000
X_163_6                       1.000000
X_164_6                       1.000000
X_165_1                       1.000000
X_166_2                       1.000000
X_167_1                       1.000000
X_168_5                       1.000000
X_169_1                       1.000000
X_170_7                       1.000000
X_171_9                       1.000000
X_172_3                       1.000000
X_173_5                       1.000000
X_174_2                       1.000000
X_175_3                       1.000000
X_176_10                      1.000000
X_177_1                       1.000000
X_178_6                       1.000000
X_179_3                       1.000000
X_180_10                      1.000000
X_181_1                       1.000000
X_182_10                      1.000000
X_183_10                      1.000000
X_184_6                       1.000000
X_185_4                       1.000000
X_186_8                       1.000000
X_187_6                       1.000000
X_188_7                       1.000000
X_189_8                       1.000000
X_190_10                      1.000000
X_191_2                       1.000000
X_192_10                      1.000000
X_193_2                       1.000000
X_194_4                       1.000000
X_195_9                       1.000000
X_196_8                       1.000000
X_197_3                       1.000000
X_198_5                       1.000000
X_199_10                      1.000000
X_200_8                       1.000000
All other variables in the range 1-2001 are 0.
